RT is False
Default write of storage_offers_DA.csv just to have a file (but constraint should be inactive)
Reading model...
...model read.
creating competitive generators file...
...competitive generators recorded.
Loading data...
.. day-ahead data with real-time VRE data read.
Compiling instance...
...instance created.
Creating Offer Mitigation (model will solve as dispatch if TRUE)...
...storage offer mitigation file created
Solving...

Welcome to IBM(R) ILOG(R) CPLEX(R) Interactive Optimizer 12.9.0.0
  with Simplex, Mixed Integer & Barrier Optimizers
5725-A06 5725-A29 5724-Y48 5724-Y49 5724-Y54 5724-Y55 5655-Y21
Copyright IBM Corp. 1988, 2019.  All Rights Reserved.

Type 'help' for a list of available commands.
Type 'help' followed by a command name for more
information on commands.

CPLEX> Logfile 'cplex.log' closed.
Logfile 'C:\Users\Luke\Desktop\competitiveMPEC_1.16\logs\tmpk10h5580.cplex.log' open.
CPLEX> New value for parallel optimization mode: -1
CPLEX> New value for mixed integer optimality gap tolerance: 0.01
CPLEX> New value for feasibility tolerance: 0.01
CPLEX> New value for deterministic time limit in ticks: 200000
CPLEX> Problem 'C:\Users\Luke\Desktop\competitiveMPEC_1.16\logs\tmpl2ygxexh.pyomo.lp' read.
Read time = 0.05 sec. (2.98 ticks)
CPLEX> Problem name         : C:\Users\Luke\Desktop\competitiveMPEC_1.16\logs\tmpl2ygxexh.pyomo.lp
Objective sense      : Minimize
Variables            :   25839  [Nneg: 49,  Box: 21422,  Free: 4368]
Objective nonzeros   :    2496
Linear constraints   :   27321  [Less: 13885,  Greater: 4416,  Equal: 9020]
  Nonzeros           :   87372
  RHS nonzeros       :   12174

Variables            : Min LB: -5000.000        Max UB: 5000.000       
Objective nonzeros   : Min   : 15.73158         Max   : 124.0997       
Linear constraints   :
  Nonzeros           : Min   : 0.8500000        Max   : 3000.000       
  RHS nonzeros       : Min   : 0.07500000       Max   : 90000.00       
CPLEX> CPXPARAM_Parallel                                -1
CPXPARAM_Simplex_Tolerances_Feasibility          0.01
CPXPARAM_DetTimeLimit                            200000
CPXPARAM_MIP_Tolerances_MIPGap                   0.01
Parallel mode: opportunistic, using up to 24 threads for concurrent optimization.
Tried aggregator 1 time.
LP Presolve eliminated 22025 rows and 17622 columns.
Aggregator did 751 substitutions.
Reduced LP has 4545 rows, 7466 columns, and 19827 nonzeros.
Presolve time = 0.05 sec. (27.50 ticks)

Iteration log . . .
Iteration:     1   Dual objective     =             0.000000
Perturbation started.
Iteration:   101   Dual objective     =             0.000000
Iteration:   407   Dual objective     =             0.428887
Iteration:   730   Dual objective     =             0.724758
Iteration:  1069   Dual objective     =             1.034556
Iteration:  1394   Dual objective     =             1.289802
Iteration:  1757   Dual objective     =             1.586114
Iteration:  2063   Dual objective     =             1.749436
Iteration:  2350   Dual objective     =             1.794086
Iteration:  2591   Dual objective     =             1.817498
Iteration:  2841   Dual objective     =        106845.846411
Iteration:  3088   Dual objective     =        217514.973421
Iteration:  3383   Dual objective     =        219802.437049
Iteration:  3627   Dual objective     =        222883.271737
Iteration:  3907   Dual objective     =        222887.344186
Removing perturbation.

Dual simplex solved model.


Dual simplex - Optimal:  Objective =  2.2288790493e+05
Solution time =    0.13 sec.  Iterations = 4178 (0)
Deterministic time = 84.55 ticks  (676.42 ticks/sec)

CPLEX> Solution written to file 'C:\Users\Luke\Desktop\competitiveMPEC_1.16\logs\tmpdg01bw3b.cplex.sol'.
CPLEX> Exporting results... 
